c description: Random 5-CNF over 15 variables and 15 clauses
c generator: CNFgen (0.9.0)
c copyright: (C) 2012-2020 Massimo Lauria <massimo.lauria@uniroma1.it>
c url: https://massimolauria.net/cnfgen
c
p cnf 15 15
-1 2 5 6 -14 0
-2 -5 -6 7 -8 0
-8 9 12 -13 -14 0
-6 7 -8 13 15 0
-2 4 6 11 -12 0
-1 -3 6 8 10 0
1 -2 -7 -11 15 0
6 -9 10 -13 14 0
1 6 8 -11 13 0
7 8 -9 12 -15 0
2 7 8 -10 14 0
-1 -3 -4 -8 -14 0
1 -4 7 -10 12 0
-1 -5 -6 -8 11 0
-8 -10 -12 14 15 0